Problem:    
Rows:       354
Columns:    129 (110 integer, 110 binary)
Non-zeros:  1125
Status:     INTEGER OPTIMAL
Objective:  value = 20.428367 (MINimum)

   No.   Row name        Activity     Lower bound   Upper bound
------ ------------    ------------- ------------- -------------
     1 r.5                         1             1             = 
     2 r.6                   1020.43             0               
     3 r.7                  -982.641      -995.721               
     4 r.8                   20.4284             0               
     5 r.9                   20.4284      -993.096               
     6 r.10                  1020.43             0               
     7 r.11                 -987.038      -996.919               
     8 r.12                  20.4284             0               
     9 r.13                  20.4284      -994.667               
    10 r.14                  1020.43             0               
    11 r.15                  -990.12      -995.443               
    12 r.16                  20.4284             0               
    13 r.17                   9.8803      -993.477               
    14 r.18                  1020.43             0               
    15 r.19                 -979.572       -996.93               
    16 r.20                  20.4284             0               
    17 r.21                  20.4284      -994.814               
    18 r.22                  20.4284             0               
    19 r.23                 -985.981       -995.61               
    20 r.24                  1020.43             0               
    21 r.25                 -983.979      -993.609               
    22 r.26                  20.4284             0               
    23 r.27                   9.6293      -993.691               
    24 r.28                  1020.43             0               
    25 r.29                 -990.371      -991.385               
    26 r.30                  20.4284             0               
    27 r.31                 -981.907      -997.928               
    28 r.32                  1020.43             0               
    29 r.33                 -979.572      -995.592               
    30 r.34                  1020.43             0               
    31 r.35                 -994.676      -995.691               
    32 r.36                  20.4284             0               
    33 r.37                  16.0207      -993.035               
    34 r.38                  1020.43             0               
    35 r.39                 -998.985      -998.985               
    36 r.40                  20.4284             0               
    37 r.41                   1.0148      -997.364               
    38 r.42                        1             1             = 
    39 r.43                        1             1             = 
    40 r.44                        1             1             = 
    41 r.45                        1             1             = 
    42 r.46                        1             1             = 
    43 r.47                        1             1             = 
    44 r.48                        1             1             = 
    45 r.49                        1             1             = 
    46 r.50                        1             1             = 
    47 r.51                        2             2               
    48 r.52                       -2         -1001               
    49 r.53                 -4.39697      -996.919               
    50 r.54                     1000             2               
    51 r.55                    -1000         -1001               
    52 r.56                     2000      -994.667               
    53 r.57                        2             2               
    54 r.58                       -2         -1001               
    55 r.59                 -7.47827      -995.443               
    56 r.60                     1000             2               
    57 r.61                    -1000         -1001               
    58 r.62                  1989.45      -993.477               
    59 r.63                        2             2               
    60 r.64                       -2         -1001               
    61 r.65                  -996.93       -996.93               
    62 r.66                     1000             2               
    63 r.67                    -1000         -1001               
    64 r.68                     2000      -994.814               
    65 r.69                     1001             2               
    66 r.70                    -1001         -1001               
    67 r.71                  996.661       -995.61               
    68 r.72                     1001             2               
    69 r.73                    -1001         -1001               
    70 r.74                  1995.59      -993.609               
    71 r.75                     1001             2               
    72 r.76                    -1001         -1001               
    73 r.77                  1992.27      -993.691               
    74 r.78                     1001             2               
    75 r.79                    -1001         -1001               
    76 r.80                   1989.2      -991.385               
    77 r.81                     1001             2               
    78 r.82                    -1001         -1001               
    79 r.83                  1000.73      -997.928               
    80 r.84                     1001             2               
    81 r.85                    -1001         -1001               
    82 r.86                     2000      -995.592               
    83 r.87                        2             2               
    84 r.88                       -2         -1001               
    85 r.89                 -12.0349      -995.691               
    86 r.90                     1000             2               
    87 r.91                    -1000         -1001               
    88 r.92                  1995.59      -993.035               
    89 r.93                 -983.656      -995.721               
    90 r.94                  19.4136      -993.096               
    91 r.95                 -983.656      -995.721               
    92 r.96                  19.4136      -993.096               
    93 r.97                        2             2               
    94 r.98                       -2         -1001               
    95 r.99                  4.39697        4.2787               
    96 r.100                    1000             2               
    97 r.101                   -1000         -1001               
    98 r.102                    2000        6.9037               
    99 r.103                -996.919      -996.919               
   100 r.104                 10.5481      -994.667               
   101 r.105                -996.919      -996.919               
   102 r.106                 10.5481      -994.667               
   103 r.107                       2             2               
   104 r.108                      -2         -1001               
   105 r.109                -992.533       -996.93               
   106 r.110                    1000             2               
   107 r.111                   -1000         -1001               
   108 r.112                    2000      -994.814               
   109 r.113                    1001             2               
   110 r.114                   -1001         -1001               
   111 r.115                 1001.06       -995.61               
   112 r.116                    1001             2               
   113 r.117                   -1001         -1001               
   114 r.118                 1995.59      -993.609               
   115 r.119                    1001             2               
   116 r.120                   -1001         -1001               
   117 r.121                 1996.67      -993.691               
   118 r.122                    1001             2               
   119 r.123                   -1001         -1001               
   120 r.124                  1989.2      -991.385               
   121 r.125                    1001             2               
   122 r.126                   -1001         -1001               
   123 r.127                 1005.13      -997.928               
   124 r.128                    1001             2               
   125 r.129                   -1001         -1001               
   126 r.130                    2000      -995.592               
   127 r.131                       2             2               
   128 r.132                      -2         -1001               
   129 r.133                 -7.6379      -995.691               
   130 r.134                    1000             2               
   131 r.135                   -1000         -1001               
   132 r.136                 1995.59      -993.035               
   133 r.137                       2             2               
   134 r.138                      -2         -1001               
   135 r.139                 7.47827        4.2787               
   136 r.140                    1000             2               
   137 r.141                   -1000         -1001               
   138 r.142                 2010.55        6.9037               
   139 r.143                       2             2               
   140 r.144                      -2         -1001               
   141 r.145                -989.452       -996.93               
   142 r.146                    1000             2               
   143 r.147                   -1000         -1001               
   144 r.148                 2010.55      -994.814               
   145 r.149                    1001             2               
   146 r.150                   -1001         -1001               
   147 r.151                 1004.14       -995.61               
   148 r.152                    1001             2               
   149 r.153                   -1001         -1001               
   150 r.154                 2006.14      -993.609               
   151 r.155                    1001             2               
   152 r.156                   -1001         -1001               
   153 r.157                 1999.75      -993.691               
   154 r.158                    1001             2               
   155 r.159                   -1001         -1001               
   156 r.160                 1999.75      -991.385               
   157 r.161                    1001             2               
   158 r.162                   -1001         -1001               
   159 r.163                 1008.21      -997.928               
   160 r.164                    1001             2               
   161 r.165                   -1001         -1001               
   162 r.166                 2010.55      -995.592               
   163 r.167                       2             2               
   164 r.168                      -2         -1001               
   165 r.169                 -4.5566      -995.691               
   166 r.170                    1000             2               
   167 r.171                   -1000         -1001               
   168 r.172                 2006.14      -993.035               
   169 r.173                -991.135      -995.443               
   170 r.174                  8.8655      -993.477               
   171 r.175                -991.135      -995.443               
   172 r.176                  8.8655      -993.477               
   173 r.177                       2             2               
   174 r.178                      -2         -1001               
   175 r.179                  996.93        4.2787               
   176 r.180                    1000             2               
   177 r.181                   -1000         -1001               
   178 r.182                    2000        6.9037               
   179 r.183                       2             2               
   180 r.184                      -2         -1001               
   181 r.185                 992.533        3.0813               
   182 r.186                    1000             2               
   183 r.187                   -1000         -1001               
   184 r.188                    2000        5.3331               
   185 r.189                       2             2               
   186 r.190                      -2         -1001               
   187 r.191                 989.452        4.5566               
   188 r.192                    1000             2               
   189 r.193                   -1000         -1001               
   190 r.194                 1989.45        6.5227               
   191 r.195                 6.40897       -996.93               
   192 r.196                 1006.41      -994.814               
   193 r.197                -995.592       -996.93               
   194 r.198                 4.40767      -994.814               
   195 r.199                    1001             2               
   196 r.200                   -1001         -1001               
   197 r.201                 997.665      -997.928               
   198 r.202                    1001             2               
   199 r.203                   -1001         -1001               
   200 r.204                    2000      -995.592               
   201 r.205                       2             2               
   202 r.206                      -2         -1001               
   203 r.207                -15.1047      -995.691               
   204 r.208                    1000             2               
   205 r.209                   -1000         -1001               
   206 r.210                 1995.59      -993.035               
   207 r.211                    1001             2               
   208 r.212                   -1001         -1001               
   209 r.213                 3003.34        4.2787               
   210 r.214                    1001             2               
   211 r.215                   -1001         -1001               
   212 r.216                 2004.41        6.9037               
   213 r.217                    1001             2               
   214 r.218                   -1001         -1001               
   215 r.219                 2998.94        3.0813               
   216 r.220                    1001             2               
   217 r.221                   -1001         -1001               
   218 r.222                 2004.41        5.3331               
   219 r.223                    1001             2               
   220 r.224                   -1001         -1001               
   221 r.225                 2995.86        4.5566               
   222 r.226                    1001             2               
   223 r.227                   -1001         -1001               
   224 r.228                 1993.86        6.5227               
   225 r.229                 -995.61       -995.61               
   226 r.230                -993.609      -993.609               
   227 r.231                 -995.61       -995.61               
   228 r.232                -993.609      -993.609               
   229 r.233                    1000             2               
   230 r.234                   -1000         -1001               
   231 r.235                 2004.07      -997.928               
   232 r.236                       2             2               
   233 r.237                      -2         -1001               
   234 r.238                -995.592      -995.592               
   235 r.239                    1001             2               
   236 r.240                   -1001         -1001               
   237 r.241                  2991.3      -995.691               
   238 r.242                    1001             2               
   239 r.243                   -1001         -1001               
   240 r.244                    2000      -993.035               
   241 r.245                    1001             2               
   242 r.246                   -1001         -1001               
   243 r.247                 2007.73        4.2787               
   244 r.248                    1001             2               
   245 r.249                   -1001         -1001               
   246 r.250                  2010.8        6.9037               
   247 r.251                    1001             2               
   248 r.252                   -1001         -1001               
   249 r.253                 2003.33        3.0813               
   250 r.254                    1001             2               
   251 r.255                   -1001         -1001               
   252 r.256                  2010.8        5.3331               
   253 r.257                    1001             2               
   254 r.258                   -1001         -1001               
   255 r.259                 2000.25        4.5566               
   256 r.260                    1001             2               
   257 r.261                   -1001         -1001               
   258 r.262                 2000.25        6.5227               
   259 r.263                    1000             2               
   260 r.264                   -1000         -1001               
   261 r.265                 1008.46      -997.928               
   262 r.266                       2             2               
   263 r.267                      -2         -1001               
   264 r.268                -989.201      -995.592               
   265 r.269                    1001             2               
   266 r.270                   -1001         -1001               
   267 r.271                 1995.69      -995.691               
   268 r.272                    1001             2               
   269 r.273                   -1001         -1001               
   270 r.274                 2006.39      -993.035               
   271 r.275                  8.6145      -993.691               
   272 r.276                -991.385      -991.385               
   273 r.277                  8.6145      -993.691               
   274 r.278                -991.385      -991.385               
   275 r.279                    1001             2               
   276 r.280                   -1001         -1001               
   277 r.281                 2999.27        4.2787               
   278 r.282                    1001             2               
   279 r.283                   -1001         -1001               
   280 r.284                    2000        6.9037               
   281 r.285                    1001             2               
   282 r.286                   -1001         -1001               
   283 r.287                 2994.87        3.0813               
   284 r.288                    1001             2               
   285 r.289                   -1001         -1001               
   286 r.290                    2000        5.3331               
   287 r.291                    1001             2               
   288 r.292                   -1001         -1001               
   289 r.293                 2991.79        4.5566               
   290 r.294                    1001             2               
   291 r.295                   -1001         -1001               
   292 r.296                 1989.45        6.5227               
   293 r.297                    1001             2               
   294 r.298                   -1001         -1001               
   295 r.299                 3002.34        3.0698               
   296 r.300                    1001             2               
   297 r.301                   -1001         -1001               
   298 r.302                    2000        5.1863               
   299 r.303                    1000             2               
   300 r.304                   -1000         -1001               
   301 r.305                 1995.93        4.3901               
   302 r.306                       2             2               
   303 r.307                      -2         -1001               
   304 r.308                 995.592        6.3914               
   305 r.309                    1000             2               
   306 r.310                   -1000         -1001               
   307 r.311                 2991.54        6.3092               
   308 r.312                       2             2               
   309 r.313                      -2         -1001               
   310 r.314                 989.201        8.6145               
   311 r.315                -987.231      -997.928               
   312 r.316                -984.895      -995.592               
   313 r.317                -997.928      -997.928               
   314 r.318                -995.592      -995.592               
   315 r.319                       2             2               
   316 r.320                      -2         -1001               
   317 r.321                 12.0349        4.2787               
   318 r.322                    1000             2               
   319 r.323                   -1000         -1001               
   320 r.324                 2004.41        6.9037               
   321 r.325                       2             2               
   322 r.326                      -2         -1001               
   323 r.327                  7.6379        3.0813               
   324 r.328                    1000             2               
   325 r.329                   -1000         -1001               
   326 r.330                 2004.41        5.3331               
   327 r.331                       2             2               
   328 r.332                      -2         -1001               
   329 r.333                  4.5566        4.5566               
   330 r.334                    1000             2               
   331 r.335                   -1000         -1001               
   332 r.336                 1993.86        6.5227               
   333 r.337                       2             2               
   334 r.338                      -2         -1001               
   335 r.339                 15.1047        3.0698               
   336 r.340                    1000             2               
   337 r.341                   -1000         -1001               
   338 r.342                 2004.41        5.1863               
   339 r.343                    1001             2               
   340 r.344                   -1001         -1001               
   341 r.345                  1008.7        4.3901               
   342 r.346                    1001             2               
   343 r.347                   -1001         -1001               
   344 r.348                    2000        6.3914               
   345 r.349                    1001             2               
   346 r.350                   -1001         -1001               
   347 r.351                 2004.31        6.3092               
   348 r.352                    1001             2               
   349 r.353                   -1001         -1001               
   350 r.354                 1993.61        8.6145               
   351 r.355                -995.691      -995.691               
   352 r.356                 15.0059      -993.035               
   353 r.357                -995.691      -995.691               
   354 r.358                 15.0059      -993.035               

   No. Column name       Activity     Lower bound   Upper bound
------ ------------    ------------- ------------- -------------
     1 tt                    20.4284             0               
     2 s_1_9        *              1             0             1 
     3 s_1_1        *              1             0             1 
     4 t_1_1                  3.0698             0               
     5 s_2_1        *              0             0             1 
     6 t_2_1                       0             0               
     7 s_1_2        *              1             0             1 
     8 t_1_2                 7.46677             0               
     9 s_2_2        *              0             0             1 
    10 t_2_2                       0             0               
    11 s_1_3        *              1             0             1 
    12 t_1_3                 10.5481             0               
    13 s_2_3        *              0             0             1 
    14 t_2_3                 10.5481             0               
    15 s_1_4        *              1             0             1 
    16 t_1_4                       0             0               
    17 s_2_4        *              0             0             1 
    18 t_2_4                       0             0               
    19 s_1_5        *              0             0             1 
    20 t_1_5                 1006.41             0               
    21 s_2_5        *              1             0             1 
    22 t_2_5                 4.40767             0               
    23 s_1_6        *              0             0             1 
    24 t_1_6                 10.7991             0               
    25 s_2_6        *              1             0             1 
    26 t_2_6                 10.7991             0               
    27 s_1_7        *              0             0             1 
    28 t_1_7                 1002.34             0               
    29 s_2_7        *              1             0             1 
    30 t_2_7                       0             0               
    31 s_1_8        *              1             0             1 
    32 t_1_8                 15.1047             0               
    33 s_2_8        *              0             0             1 
    34 t_2_8                 4.40767             0               
    35 t_1_9                 19.4136             0               
    36 s_2_9        *              0             0             1 
    37 t_2_9                 19.4136             0               
    38 r_1_1_2      *              0             0             1 
    39 u_1_1_2      *              0             0             1 
    40 r_2_1_2      *              1             0             1 
    41 u_2_1_2      *              0             0             1 
    42 r_1_1_3      *              0             0             1 
    43 u_1_1_3      *              0             0             1 
    44 r_2_1_3      *              1             0             1 
    45 u_2_1_3      *              0             0             1 
    46 r_1_1_4      *              0             0             1 
    47 u_1_1_4      *              1             0             1 
    48 r_2_1_4      *              1             0             1 
    49 u_2_1_4      *              0             0             1 
    50 r_1_1_5      *              1             0             1 
    51 u_1_1_5      *              0             0             1 
    52 r_2_1_5      *              1             0             1 
    53 u_2_1_5      *              0             0             1 
    54 r_1_1_6      *              1             0             1 
    55 u_1_1_6      *              0             0             1 
    56 r_2_1_6      *              1             0             1 
    57 u_2_1_6      *              0             0             1 
    58 r_1_1_7      *              1             0             1 
    59 u_1_1_7      *              0             0             1 
    60 r_2_1_7      *              1             0             1 
    61 u_2_1_7      *              0             0             1 
    62 r_1_1_8      *              0             0             1 
    63 u_1_1_8      *              0             0             1 
    64 r_2_1_8      *              1             0             1 
    65 u_2_1_8      *              0             0             1 
    66 r_1_2_4      *              0             0             1 
    67 u_1_2_4      *              1             0             1 
    68 r_2_2_4      *              1             0             1 
    69 u_2_2_4      *              0             0             1 
    70 r_1_2_5      *              1             0             1 
    71 u_1_2_5      *              0             0             1 
    72 r_2_2_5      *              1             0             1 
    73 u_2_2_5      *              0             0             1 
    74 r_1_2_6      *              1             0             1 
    75 u_1_2_6      *              0             0             1 
    76 r_2_2_6      *              1             0             1 
    77 u_2_2_6      *              0             0             1 
    78 r_1_2_7      *              1             0             1 
    79 u_1_2_7      *              0             0             1 
    80 r_2_2_7      *              1             0             1 
    81 u_2_2_7      *              0             0             1 
    82 r_1_2_8      *              0             0             1 
    83 u_1_2_8      *              0             0             1 
    84 r_2_2_8      *              1             0             1 
    85 u_2_2_8      *              0             0             1 
    86 r_1_3_4      *              0             0             1 
    87 u_1_3_4      *              1             0             1 
    88 r_2_3_4      *              1             0             1 
    89 u_2_3_4      *              0             0             1 
    90 r_1_3_5      *              1             0             1 
    91 u_1_3_5      *              0             0             1 
    92 r_2_3_5      *              1             0             1 
    93 u_2_3_5      *              0             0             1 
    94 r_1_3_6      *              1             0             1 
    95 u_1_3_6      *              0             0             1 
    96 r_2_3_6      *              1             0             1 
    97 u_2_3_6      *              0             0             1 
    98 r_1_3_7      *              1             0             1 
    99 u_1_3_7      *              0             0             1 
   100 r_2_3_7      *              1             0             1 
   101 u_2_3_7      *              0             0             1 
   102 r_1_3_8      *              0             0             1 
   103 u_1_3_8      *              0             0             1 
   104 r_2_3_8      *              1             0             1 
   105 u_2_3_8      *              0             0             1 
   106 r_1_4_7      *              1             0             1 
   107 u_1_4_7      *              0             0             1 
   108 r_2_4_7      *              1             0             1 
   109 u_2_4_7      *              0             0             1 
   110 r_1_4_8      *              0             0             1 
   111 u_1_4_8      *              0             0             1 
   112 r_2_4_8      *              1             0             1 
   113 u_2_4_8      *              0             0             1 
   114 r_1_5_7      *              1             0             1 
   115 u_1_5_7      *              0             0             1 
   116 r_2_5_7      *              0             0             1 
   117 u_2_5_7      *              1             0             1 
   118 r_1_5_8      *              1             0             1 
   119 u_1_5_8      *              0             0             1 
   120 r_2_5_8      *              1             0             1 
   121 u_2_5_8      *              0             0             1 
   122 r_1_6_7      *              1             0             1 
   123 u_1_6_7      *              0             0             1 
   124 r_2_6_7      *              0             0             1 
   125 u_2_6_7      *              1             0             1 
   126 r_1_6_8      *              1             0             1 
   127 u_1_6_8      *              0             0             1 
   128 r_2_6_8      *              1             0             1 
   129 u_2_6_8      *              0             0             1 

Integer feasibility conditions:

KKT.PE: max.abs.err = 4.55e-13 on row 209
        max.rel.err = 7.57e-17 on row 301
        High quality

KKT.PB: max.abs.err = 8.88e-16 on row 329
        max.rel.err = 1.60e-16 on row 329
        High quality

End of output
